10
0 1 50
0 2 30
0 3 10
0 4 20
0 5 20
0 6 15
0 7 10
0 8 50
0 9 0
1 2 5
1 3 10
1 4 10
1 5 5
1 6 15
1 7 20
1 8 10
1 9 5
2 3 10
2 4 5
2 5 20
2 6 15
2 7 30
2 8 40
2 9 50
3 4 15
3 5 5
3 6 30
3 7 40
3 8 10
3 9 15
4 5 5
4 6 10
4 7 20
4 8 10
4 9 20
5 6 5
5 7 5
5 8 5
5 9 50
6 7 10
6 8 10
6 9 50
7 8 5
7 9 15
8 9 100